NAME: PointSet_Angle_35_9
TYPE: TSP
COMMENT: Points chosen discrete uniformly at random out of ${0, \ldots, 500}^2$.
DIMENSION: 35
EDGE_WEIGHT_TYPE: EUC_2D
NODE_COORD_SECTION
1 175 334
2 127 40
3 344 90
4 384 53
5 42 58
6 113 348
7 276 91
8 103 413
9 233 237
10 496 66
11 387 442
12 258 19
13 67 186
14 144 350
15 428 85
16 355 102
17 419 228
18 389 9
19 64 272
20 62 354
21 331 422
22 448 353
23 12 51
24 11 246
25 288 253
26 58 422
27 442 62
28 441 255
29 248 331
30 104 176
31 416 205
32 278 81
33 179 414
34 90 243
35 185 399
EOF
